(set-logic QF_BV)
(declare-fun _substvar_288_ () (_ BitVec 512))
(assert (and true true true true true true true true true true true true true true true true true true (not (= ((_ extract 447 384) _substvar_288_) ((_ extract 383 320) _substvar_288_))) true true true true true true true true true true true true true true true true true true true true true true true true true true true true true true))
(check-sat)
(exit)
